c "562332.clq"
p edge 142 552
e 1 5
e 1 8
e 1 9
e 1 13
e 1 22
e 2 5
e 2 6
e 2 7
e 2 8
e 2 11
e 2 12
e 2 15
e 2 18
e 2 21
e 2 27
e 2 28
e 2 29
e 2 30
e 2 37
e 2 42
e 2 56
e 2 58
e 2 64
e 2 66
e 2 71
e 2 74
e 2 83
e 2 89
e 2 90
e 2 91
e 2 92
e 2 107
e 2 114
e 2 124
e 3 5
e 3 6
e 3 10
e 3 17
e 3 24
e 3 32
e 3 51
e 3 61
e 3 75
e 3 83
e 3 95
e 3 97
e 3 101
e 3 130
e 4 5
e 4 6
e 4 7
e 4 9
e 4 11
e 4 18
e 4 19
e 4 21
e 4 27
e 4 34
e 4 35
e 4 44
e 4 88
e 4 103
e 4 138
e 5 6
e 5 7
e 5 8
e 5 9
e 5 10
e 5 13
e 5 15
e 5 16
e 5 18
e 5 20
e 5 21
e 5 22
e 5 24
e 5 25
e 5 29
e 5 32
e 5 33
e 5 39
e 5 41
e 5 42
e 5 43
e 5 44
e 5 52
e 5 57
e 5 58
e 5 60
e 5 62
e 5 63
e 5 64
e 5 69
e 5 72
e 5 74
e 5 80
e 5 89
e 5 94
e 5 104
e 5 107
e 5 111
e 5 115
e 5 117
e 5 125
e 5 129
e 5 130
e 5 131
e 6 7
e 6 10
e 6 17
e 6 19
e 6 28
e 6 31
e 6 34
e 6 66
e 6 67
e 6 77
e 6 80
e 6 82
e 6 84
e 6 90
e 6 120
e 6 128
e 6 135
e 6 141
e 7 8
e 7 9
e 7 10
e 7 11
e 7 12
e 7 13
e 7 14
e 7 15
e 7 16
e 7 23
e 7 24
e 7 25
e 7 26
e 7 29
e 7 38
e 7 39
e 7 44
e 7 49
e 7 52
e 7 53
e 7 72
e 7 74
e 7 76
e 7 79
e 7 82
e 7 85
e 7 86
e 7 90
e 7 102
e 7 105
e 7 110
e 7 111
e 7 112
e 7 116
e 7 122
e 7 130
e 8 12
e 8 14
e 8 16
e 8 19
e 8 20
e 8 21
e 8 27
e 8 32
e 8 38
e 8 53
e 8 55
e 8 56
e 8 59
e 8 62
e 8 67
e 8 69
e 8 78
e 8 82
e 8 91
e 8 106
e 8 109
e 8 129
e 9 14
e 9 15
e 9 17
e 9 19
e 9 28
e 9 30
e 9 33
e 9 34
e 9 43
e 9 48
e 9 54
e 9 61
e 9 63
e 9 66
e 9 67
e 9 71
e 9 79
e 9 80
e 9 99
e 9 116
e 9 118
e 9 124
e 9 142
e 10 11
e 10 12
e 10 14
e 10 16
e 10 20
e 10 23
e 10 26
e 10 28
e 10 32
e 10 35
e 10 36
e 10 42
e 10 46
e 10 47
e 10 48
e 10 51
e 10 55
e 10 57
e 10 64
e 10 68
e 10 76
e 10 80
e 10 116
e 10 119
e 10 123
e 10 126
e 10 131
e 10 137
e 11 20
e 11 30
e 11 35
e 11 38
e 11 40
e 11 61
e 11 79
e 11 94
e 11 104
e 11 112
e 11 127
e 12 13
e 12 36
e 12 37
e 12 40
e 12 41
e 12 50
e 12 53
e 12 55
e 12 59
e 12 69
e 12 75
e 12 93
e 12 94
e 12 107
e 12 108
e 12 128
e 12 139
e 13 18
e 13 39
e 13 46
e 13 67
e 13 108
e 14 17
e 14 27
e 14 48
e 14 73
e 14 76
e 14 86
e 14 124
e 15 93
e 15 97
e 15 103
e 15 118
e 15 132
e 15 136
e 16 22
e 16 40
e 16 58
e 16 114
e 17 71
e 17 97
e 17 101
e 18 23
e 18 31
e 18 101
e 19 25
e 19 26
e 19 29
e 19 85
e 19 122
e 20 81
e 21 22
e 21 24
e 21 33
e 21 37
e 21 42
e 21 47
e 21 68
e 21 74
e 21 76
e 21 78
e 21 81
e 21 87
e 21 89
e 21 90
e 21 100
e 21 110
e 21 112
e 21 115
e 21 119
e 21 135
e 21 136
e 22 23
e 22 25
e 22 44
e 22 49
e 22 65
e 22 72
e 22 77
e 22 82
e 22 86
e 22 107
e 23 26
e 23 95
e 23 96
e 23 112
e 23 127
e 23 131
e 23 134
e 24 37
e 24 54
e 24 63
e 24 70
e 25 30
e 25 31
e 25 34
e 25 40
e 25 45
e 25 46
e 25 47
e 25 48
e 25 50
e 25 73
e 25 86
e 25 91
e 25 99
e 25 104
e 25 105
e 25 117
e 25 135
e 26 65
e 26 119
e 26 125
e 26 136
e 27 31
e 27 36
e 27 43
e 27 81
e 27 109
e 27 110
e 27 113
e 27 125
e 27 134
e 27 138
e 28 35
e 28 38
e 28 46
e 28 52
e 28 54
e 28 55
e 28 57
e 28 62
e 28 65
e 28 88
e 28 96
e 28 98
e 28 99
e 28 111
e 28 119
e 28 129
e 28 139
e 29 45
e 29 51
e 29 54
e 29 64
e 29 95
e 30 49
e 30 63
e 30 98
e 30 103
e 30 108
e 31 36
e 31 39
e 31 41
e 31 51
e 31 109
e 31 121
e 31 132
e 32 33
e 32 43
e 32 50
e 32 53
e 32 61
e 32 69
e 32 70
e 32 75
e 32 85
e 32 106
e 32 133
e 32 137
e 33 47
e 33 60
e 33 70
e 33 103
e 33 117
e 33 128
e 33 139
e 33 141
e 34 50
e 35 89
e 35 123
e 35 126
e 36 78
e 36 114
e 37 45
e 37 49
e 37 83
e 37 102
e 37 111
e 37 120
e 38 125
e 40 41
e 40 45
e 40 87
e 41 56
e 41 58
e 41 71
e 41 79
e 41 81
e 41 124
e 41 129
e 42 95
e 42 98
e 42 136
e 42 139
e 43 68
e 43 102
e 43 113
e 43 138
e 44 60
e 44 62
e 44 73
e 44 123
e 45 65
e 45 75
e 45 77
e 45 88
e 45 118
e 45 120
e 45 137
e 45 142
e 46 66
e 46 113
e 46 121
e 47 122
e 47 123
e 48 87
e 49 56
e 49 59
e 49 84
e 50 52
e 50 57
e 50 68
e 52 108
e 53 60
e 53 70
e 53 94
e 54 85
e 54 92
e 58 59
e 58 97
e 58 105
e 59 105
e 60 78
e 61 96
e 61 100
e 62 87
e 62 137
e 63 106
e 64 84
e 66 101
e 66 134
e 68 72
e 68 113
e 69 77
e 70 73
e 71 115
e 71 120
e 72 100
e 72 117
e 73 102
e 73 140
e 74 83
e 74 88
e 74 122
e 74 132
e 74 140
e 74 142
e 75 106
e 75 115
e 77 84
e 77 93
e 78 100
e 79 126
e 80 104
e 83 93
e 84 109
e 84 132
e 86 91
e 86 140
e 87 99
e 88 135
e 89 92
e 90 116
e 91 92
e 92 96
e 92 127
e 93 98
e 93 118
e 95 121
e 97 130
e 97 138
e 102 110
e 102 114
e 104 126
e 104 141
e 107 133
e 109 127
e 111 134
e 114 142
e 115 141
e 116 121
e 116 133
e 119 131
e 120 133
e 121 128
e 129 140
